Route #1: 1 17 50 17 24 17 1 
Route #2: 1 31 46 28 16 14 20 36 8 1 
Route #3: 1 7 34 2 44 42 43 2 23 2 1 
Route #4: 1 17 4 45 33 10 40 11 32 11 1 
Route #5: 1 13 41 33 19 33 26 33 18 1 
Route #6: 1 5 31 3 29 22 37 48 22 1 
Route #7: 1 35 47 9 20 15 12 39 11 27 1 
Route #8: 1 30 31 49 6 16 21 38 16 1 
Cost 757.0
